(set-logic QF_LRA)
(declare-fun T1 () Real )
(declare-fun T2 () Real )
(declare-fun T3 () Real )
(declare-fun T4 () Real )
(declare-fun T5 () Real )
(declare-fun T6 () Real )
(declare-fun T7 () Real )
(declare-fun T8 () Real )
(declare-fun Z () Real )
(declare-fun k () Real )
(assert (let
(( $goal (>= Z k) ))
(let
((
$phi ( and 
(or ( <= ( + T1 38 ) T2 ) ( <= ( + T2 20 ) T1 ) )
(or ( <= ( + T1 135 )  ( + T2 20 ) ) ( <= ( + T2 90 )( + T1 38 ) ) )
(or ( <= ( + T1 176 )  ( + T2 90 ) ) ( <= ( + T2 114 )( + T1 135 ) ) )
(or ( <= ( + T1 217 )  ( + T2 114 ) ) ( <= ( + T2 170 )( + T1 176 ) ) )
(or ( <= ( + T1 266 )  ( + T2 170 ) ) ( <= ( + T2 232 )( + T1 217 ) ) )
(or ( <= ( + T1 317 )  ( + T2 232 ) ) ( <= ( + T2 283 )( + T1 266 ) ) )
(or ( <= ( + T1 399 )  ( + T2 283 ) ) ( <= ( + T2 286 )( + T1 317 ) ) )
(or ( <= ( + T1 447 )  ( + T2 286 ) ) ( <= ( + T2 328 )( + T1 399 ) ) )
(or ( <= ( + T1 519 )  ( + T2 328 ) ) ( <= ( + T2 338 )( + T1 447 ) ) )
(or ( <= ( + T1 589 )  ( + T2 338 ) ) ( <= ( + T2 404 )( + T1 519 ) ) )
(or ( <= ( + T1 38 ) T3 ) ( <= ( + T3 74 ) T1 ) )
(or ( <= ( + T1 135 )  ( + T3 74 ) ) ( <= ( + T3 115 )( + T1 38 ) ) )
(or ( <= ( + T1 176 )  ( + T3 115 ) ) ( <= ( + T3 206 )( + T1 135 ) ) )
(or ( <= ( + T1 217 )  ( + T3 206 ) ) ( <= ( + T3 222 )( + T1 176 ) ) )
(or ( <= ( + T1 266 )  ( + T3 222 ) ) ( <= ( + T3 227 )( + T1 217 ) ) )
(or ( <= ( + T1 317 )  ( + T3 227 ) ) ( <= ( + T3 229 )( + T1 266 ) ) )
(or ( <= ( + T1 399 )  ( + T3 229 ) ) ( <= ( + T3 324 )( + T1 317 ) ) )
(or ( <= ( + T1 447 )  ( + T3 324 ) ) ( <= ( + T3 403 )( + T1 399 ) ) )
(or ( <= ( + T1 519 )  ( + T3 403 ) ) ( <= ( + T3 427 )( + T1 447 ) ) )
(or ( <= ( + T1 589 )  ( + T3 427 ) ) ( <= ( + T3 514 )( + T1 519 ) ) )
(or ( <= ( + T1 38 ) T4 ) ( <= ( + T4 66 ) T1 ) )
(or ( <= ( + T1 135 )  ( + T4 66 ) ) ( <= ( + T4 79 )( + T1 38 ) ) )
(or ( <= ( + T1 176 )  ( + T4 79 ) ) ( <= ( + T4 114 )( + T1 135 ) ) )
(or ( <= ( + T1 217 )  ( + T4 114 ) ) ( <= ( + T4 172 )( + T1 176 ) ) )
(or ( <= ( + T1 266 )  ( + T4 172 ) ) ( <= ( + T4 177 )( + T1 217 ) ) )
(or ( <= ( + T1 317 )  ( + T4 177 ) ) ( <= ( + T4 260 )( + T1 266 ) ) )
(or ( <= ( + T1 399 )  ( + T4 260 ) ) ( <= ( + T4 320 )( + T1 317 ) ) )
(or ( <= ( + T1 447 )  ( + T4 320 ) ) ( <= ( + T4 407 )( + T1 399 ) ) )
(or ( <= ( + T1 519 )  ( + T4 407 ) ) ( <= ( + T4 437 )( + T1 447 ) ) )
(or ( <= ( + T1 589 )  ( + T4 437 ) ) ( <= ( + T4 468 )( + T1 519 ) ) )
(or ( <= ( + T1 38 ) T5 ) ( <= ( + T5 56 ) T1 ) )
(or ( <= ( + T1 135 )  ( + T5 56 ) ) ( <= ( + T5 58 )( + T1 38 ) ) )
(or ( <= ( + T1 176 )  ( + T5 58 ) ) ( <= ( + T5 158 )( + T1 135 ) ) )
(or ( <= ( + T1 217 )  ( + T5 158 ) ) ( <= ( + T5 189 )( + T1 176 ) ) )
(or ( <= ( + T1 266 )  ( + T5 189 ) ) ( <= ( + T5 198 )( + T1 217 ) ) )
(or ( <= ( + T1 317 )  ( + T5 198 ) ) ( <= ( + T5 211 )( + T1 266 ) ) )
(or ( <= ( + T1 399 )  ( + T5 211 ) ) ( <= ( + T5 292 )( + T1 317 ) ) )
(or ( <= ( + T1 447 )  ( + T5 292 ) ) ( <= ( + T5 303 )( + T1 399 ) ) )
(or ( <= ( + T1 519 )  ( + T5 303 ) ) ( <= ( + T5 357 )( + T1 447 ) ) )
(or ( <= ( + T1 589 )  ( + T5 357 ) ) ( <= ( + T5 447 )( + T1 519 ) ) )
(or ( <= ( + T1 38 ) T6 ) ( <= ( + T6 28 ) T1 ) )
(or ( <= ( + T1 135 )  ( + T6 28 ) ) ( <= ( + T6 55 )( + T1 38 ) ) )
(or ( <= ( + T1 176 )  ( + T6 55 ) ) ( <= ( + T6 86 )( + T1 135 ) ) )
(or ( <= ( + T1 217 )  ( + T6 86 ) ) ( <= ( + T6 104 )( + T1 176 ) ) )
(or ( <= ( + T1 266 )  ( + T6 104 ) ) ( <= ( + T6 198 )( + T1 217 ) ) )
(or ( <= ( + T1 317 )  ( + T6 198 ) ) ( <= ( + T6 285 )( + T1 266 ) ) )
(or ( <= ( + T1 399 )  ( + T6 285 ) ) ( <= ( + T6 357 )( + T1 317 ) ) )
(or ( <= ( + T1 447 )  ( + T6 357 ) ) ( <= ( + T6 398 )( + T1 399 ) ) )
(or ( <= ( + T1 519 )  ( + T6 398 ) ) ( <= ( + T6 463 )( + T1 447 ) ) )
(or ( <= ( + T1 589 )  ( + T6 463 ) ) ( <= ( + T6 510 )( + T1 519 ) ) )
(or ( <= ( + T1 38 ) T7 ) ( <= ( + T7 79 ) T1 ) )
(or ( <= ( + T1 135 )  ( + T7 79 ) ) ( <= ( + T7 161 )( + T1 38 ) ) )
(or ( <= ( + T1 176 )  ( + T7 161 ) ) ( <= ( + T7 220 )( + T1 135 ) ) )
(or ( <= ( + T1 217 )  ( + T7 220 ) ) ( <= ( + T7 234 )( + T1 176 ) ) )
(or ( <= ( + T1 266 )  ( + T7 234 ) ) ( <= ( + T7 273 )( + T1 217 ) ) )
(or ( <= ( + T1 317 )  ( + T7 273 ) ) ( <= ( + T7 336 )( + T1 266 ) ) )
(or ( <= ( + T1 399 )  ( + T7 336 ) ) ( <= ( + T7 432 )( + T1 317 ) ) )
(or ( <= ( + T1 447 )  ( + T7 432 ) ) ( <= ( + T7 531 )( + T1 399 ) ) )
(or ( <= ( + T1 519 )  ( + T7 531 ) ) ( <= ( + T7 580 )( + T1 447 ) ) )
(or ( <= ( + T1 589 )  ( + T7 580 ) ) ( <= ( + T7 658 )( + T1 519 ) ) )
(or ( <= ( + T1 38 ) T8 ) ( <= ( + T8 81 ) T1 ) )
(or ( <= ( + T1 135 )  ( + T8 81 ) ) ( <= ( + T8 85 )( + T1 38 ) ) )
(or ( <= ( + T1 176 )  ( + T8 85 ) ) ( <= ( + T8 164 )( + T1 135 ) ) )
(or ( <= ( + T1 217 )  ( + T8 164 ) ) ( <= ( + T8 245 )( + T1 176 ) ) )
(or ( <= ( + T1 266 )  ( + T8 245 ) ) ( <= ( + T8 280 )( + T1 217 ) ) )
(or ( <= ( + T1 317 )  ( + T8 280 ) ) ( <= ( + T8 367 )( + T1 266 ) ) )
(or ( <= ( + T1 399 )  ( + T8 367 ) ) ( <= ( + T8 412 )( + T1 317 ) ) )
(or ( <= ( + T1 447 )  ( + T8 412 ) ) ( <= ( + T8 479 )( + T1 399 ) ) )
(or ( <= ( + T1 519 )  ( + T8 479 ) ) ( <= ( + T8 528 )( + T1 447 ) ) )
(or ( <= ( + T1 589 )  ( + T8 528 ) ) ( <= ( + T8 579 )( + T1 519 ) ) )
(or ( <= ( + T2 20 ) T3 ) ( <= ( + T3 74 ) T2 ) )
(or ( <= ( + T2 90 )  ( + T3 74 ) ) ( <= ( + T3 115 )( + T2 20 ) ) )
(or ( <= ( + T2 114 )  ( + T3 115 ) ) ( <= ( + T3 206 )( + T2 90 ) ) )
(or ( <= ( + T2 170 )  ( + T3 206 ) ) ( <= ( + T3 222 )( + T2 114 ) ) )
(or ( <= ( + T2 232 )  ( + T3 222 ) ) ( <= ( + T3 227 )( + T2 170 ) ) )
(or ( <= ( + T2 283 )  ( + T3 227 ) ) ( <= ( + T3 229 )( + T2 232 ) ) )
(or ( <= ( + T2 286 )  ( + T3 229 ) ) ( <= ( + T3 324 )( + T2 283 ) ) )
(or ( <= ( + T2 328 )  ( + T3 324 ) ) ( <= ( + T3 403 )( + T2 286 ) ) )
(or ( <= ( + T2 338 )  ( + T3 403 ) ) ( <= ( + T3 427 )( + T2 328 ) ) )
(or ( <= ( + T2 404 )  ( + T3 427 ) ) ( <= ( + T3 514 )( + T2 338 ) ) )
(or ( <= ( + T2 20 ) T4 ) ( <= ( + T4 66 ) T2 ) )
(or ( <= ( + T2 90 )  ( + T4 66 ) ) ( <= ( + T4 79 )( + T2 20 ) ) )
(or ( <= ( + T2 114 )  ( + T4 79 ) ) ( <= ( + T4 114 )( + T2 90 ) ) )
(or ( <= ( + T2 170 )  ( + T4 114 ) ) ( <= ( + T4 172 )( + T2 114 ) ) )
(or ( <= ( + T2 232 )  ( + T4 172 ) ) ( <= ( + T4 177 )( + T2 170 ) ) )
(or ( <= ( + T2 283 )  ( + T4 177 ) ) ( <= ( + T4 260 )( + T2 232 ) ) )
(or ( <= ( + T2 286 )  ( + T4 260 ) ) ( <= ( + T4 320 )( + T2 283 ) ) )
(or ( <= ( + T2 328 )  ( + T4 320 ) ) ( <= ( + T4 407 )( + T2 286 ) ) )
(or ( <= ( + T2 338 )  ( + T4 407 ) ) ( <= ( + T4 437 )( + T2 328 ) ) )
(or ( <= ( + T2 404 )  ( + T4 437 ) ) ( <= ( + T4 468 )( + T2 338 ) ) )
(or ( <= ( + T2 20 ) T5 ) ( <= ( + T5 56 ) T2 ) )
(or ( <= ( + T2 90 )  ( + T5 56 ) ) ( <= ( + T5 58 )( + T2 20 ) ) )
(or ( <= ( + T2 114 )  ( + T5 58 ) ) ( <= ( + T5 158 )( + T2 90 ) ) )
(or ( <= ( + T2 170 )  ( + T5 158 ) ) ( <= ( + T5 189 )( + T2 114 ) ) )
(or ( <= ( + T2 232 )  ( + T5 189 ) ) ( <= ( + T5 198 )( + T2 170 ) ) )
(or ( <= ( + T2 283 )  ( + T5 198 ) ) ( <= ( + T5 211 )( + T2 232 ) ) )
(or ( <= ( + T2 286 )  ( + T5 211 ) ) ( <= ( + T5 292 )( + T2 283 ) ) )
(or ( <= ( + T2 328 )  ( + T5 292 ) ) ( <= ( + T5 303 )( + T2 286 ) ) )
(or ( <= ( + T2 338 )  ( + T5 303 ) ) ( <= ( + T5 357 )( + T2 328 ) ) )
(or ( <= ( + T2 404 )  ( + T5 357 ) ) ( <= ( + T5 447 )( + T2 338 ) ) )
(or ( <= ( + T2 20 ) T6 ) ( <= ( + T6 28 ) T2 ) )
(or ( <= ( + T2 90 )  ( + T6 28 ) ) ( <= ( + T6 55 )( + T2 20 ) ) )
(or ( <= ( + T2 114 )  ( + T6 55 ) ) ( <= ( + T6 86 )( + T2 90 ) ) )
(or ( <= ( + T2 170 )  ( + T6 86 ) ) ( <= ( + T6 104 )( + T2 114 ) ) )
(or ( <= ( + T2 232 )  ( + T6 104 ) ) ( <= ( + T6 198 )( + T2 170 ) ) )
(or ( <= ( + T2 283 )  ( + T6 198 ) ) ( <= ( + T6 285 )( + T2 232 ) ) )
(or ( <= ( + T2 286 )  ( + T6 285 ) ) ( <= ( + T6 357 )( + T2 283 ) ) )
(or ( <= ( + T2 328 )  ( + T6 357 ) ) ( <= ( + T6 398 )( + T2 286 ) ) )
(or ( <= ( + T2 338 )  ( + T6 398 ) ) ( <= ( + T6 463 )( + T2 328 ) ) )
(or ( <= ( + T2 404 )  ( + T6 463 ) ) ( <= ( + T6 510 )( + T2 338 ) ) )
(or ( <= ( + T2 20 ) T7 ) ( <= ( + T7 79 ) T2 ) )
(or ( <= ( + T2 90 )  ( + T7 79 ) ) ( <= ( + T7 161 )( + T2 20 ) ) )
(or ( <= ( + T2 114 )  ( + T7 161 ) ) ( <= ( + T7 220 )( + T2 90 ) ) )
(or ( <= ( + T2 170 )  ( + T7 220 ) ) ( <= ( + T7 234 )( + T2 114 ) ) )
(or ( <= ( + T2 232 )  ( + T7 234 ) ) ( <= ( + T7 273 )( + T2 170 ) ) )
(or ( <= ( + T2 283 )  ( + T7 273 ) ) ( <= ( + T7 336 )( + T2 232 ) ) )
(or ( <= ( + T2 286 )  ( + T7 336 ) ) ( <= ( + T7 432 )( + T2 283 ) ) )
(or ( <= ( + T2 328 )  ( + T7 432 ) ) ( <= ( + T7 531 )( + T2 286 ) ) )
(or ( <= ( + T2 338 )  ( + T7 531 ) ) ( <= ( + T7 580 )( + T2 328 ) ) )
(or ( <= ( + T2 404 )  ( + T7 580 ) ) ( <= ( + T7 658 )( + T2 338 ) ) )
(or ( <= ( + T2 20 ) T8 ) ( <= ( + T8 81 ) T2 ) )
(or ( <= ( + T2 90 )  ( + T8 81 ) ) ( <= ( + T8 85 )( + T2 20 ) ) )
(or ( <= ( + T2 114 )  ( + T8 85 ) ) ( <= ( + T8 164 )( + T2 90 ) ) )
(or ( <= ( + T2 170 )  ( + T8 164 ) ) ( <= ( + T8 245 )( + T2 114 ) ) )
(or ( <= ( + T2 232 )  ( + T8 245 ) ) ( <= ( + T8 280 )( + T2 170 ) ) )
(or ( <= ( + T2 283 )  ( + T8 280 ) ) ( <= ( + T8 367 )( + T2 232 ) ) )
(or ( <= ( + T2 286 )  ( + T8 367 ) ) ( <= ( + T8 412 )( + T2 283 ) ) )
(or ( <= ( + T2 328 )  ( + T8 412 ) ) ( <= ( + T8 479 )( + T2 286 ) ) )
(or ( <= ( + T2 338 )  ( + T8 479 ) ) ( <= ( + T8 528 )( + T2 328 ) ) )
(or ( <= ( + T2 404 )  ( + T8 528 ) ) ( <= ( + T8 579 )( + T2 338 ) ) )
(or ( <= ( + T3 74 ) T4 ) ( <= ( + T4 66 ) T3 ) )
(or ( <= ( + T3 115 )  ( + T4 66 ) ) ( <= ( + T4 79 )( + T3 74 ) ) )
(or ( <= ( + T3 206 )  ( + T4 79 ) ) ( <= ( + T4 114 )( + T3 115 ) ) )
(or ( <= ( + T3 222 )  ( + T4 114 ) ) ( <= ( + T4 172 )( + T3 206 ) ) )
(or ( <= ( + T3 227 )  ( + T4 172 ) ) ( <= ( + T4 177 )( + T3 222 ) ) )
(or ( <= ( + T3 229 )  ( + T4 177 ) ) ( <= ( + T4 260 )( + T3 227 ) ) )
(or ( <= ( + T3 324 )  ( + T4 260 ) ) ( <= ( + T4 320 )( + T3 229 ) ) )
(or ( <= ( + T3 403 )  ( + T4 320 ) ) ( <= ( + T4 407 )( + T3 324 ) ) )
(or ( <= ( + T3 427 )  ( + T4 407 ) ) ( <= ( + T4 437 )( + T3 403 ) ) )
(or ( <= ( + T3 514 )  ( + T4 437 ) ) ( <= ( + T4 468 )( + T3 427 ) ) )
(or ( <= ( + T3 74 ) T5 ) ( <= ( + T5 56 ) T3 ) )
(or ( <= ( + T3 115 )  ( + T5 56 ) ) ( <= ( + T5 58 )( + T3 74 ) ) )
(or ( <= ( + T3 206 )  ( + T5 58 ) ) ( <= ( + T5 158 )( + T3 115 ) ) )
(or ( <= ( + T3 222 )  ( + T5 158 ) ) ( <= ( + T5 189 )( + T3 206 ) ) )
(or ( <= ( + T3 227 )  ( + T5 189 ) ) ( <= ( + T5 198 )( + T3 222 ) ) )
(or ( <= ( + T3 229 )  ( + T5 198 ) ) ( <= ( + T5 211 )( + T3 227 ) ) )
(or ( <= ( + T3 324 )  ( + T5 211 ) ) ( <= ( + T5 292 )( + T3 229 ) ) )
(or ( <= ( + T3 403 )  ( + T5 292 ) ) ( <= ( + T5 303 )( + T3 324 ) ) )
(or ( <= ( + T3 427 )  ( + T5 303 ) ) ( <= ( + T5 357 )( + T3 403 ) ) )
(or ( <= ( + T3 514 )  ( + T5 357 ) ) ( <= ( + T5 447 )( + T3 427 ) ) )
(or ( <= ( + T3 74 ) T6 ) ( <= ( + T6 28 ) T3 ) )
(or ( <= ( + T3 115 )  ( + T6 28 ) ) ( <= ( + T6 55 )( + T3 74 ) ) )
(or ( <= ( + T3 206 )  ( + T6 55 ) ) ( <= ( + T6 86 )( + T3 115 ) ) )
(or ( <= ( + T3 222 )  ( + T6 86 ) ) ( <= ( + T6 104 )( + T3 206 ) ) )
(or ( <= ( + T3 227 )  ( + T6 104 ) ) ( <= ( + T6 198 )( + T3 222 ) ) )
(or ( <= ( + T3 229 )  ( + T6 198 ) ) ( <= ( + T6 285 )( + T3 227 ) ) )
(or ( <= ( + T3 324 )  ( + T6 285 ) ) ( <= ( + T6 357 )( + T3 229 ) ) )
(or ( <= ( + T3 403 )  ( + T6 357 ) ) ( <= ( + T6 398 )( + T3 324 ) ) )
(or ( <= ( + T3 427 )  ( + T6 398 ) ) ( <= ( + T6 463 )( + T3 403 ) ) )
(or ( <= ( + T3 514 )  ( + T6 463 ) ) ( <= ( + T6 510 )( + T3 427 ) ) )
(or ( <= ( + T3 74 ) T7 ) ( <= ( + T7 79 ) T3 ) )
(or ( <= ( + T3 115 )  ( + T7 79 ) ) ( <= ( + T7 161 )( + T3 74 ) ) )
(or ( <= ( + T3 206 )  ( + T7 161 ) ) ( <= ( + T7 220 )( + T3 115 ) ) )
(or ( <= ( + T3 222 )  ( + T7 220 ) ) ( <= ( + T7 234 )( + T3 206 ) ) )
(or ( <= ( + T3 227 )  ( + T7 234 ) ) ( <= ( + T7 273 )( + T3 222 ) ) )
(or ( <= ( + T3 229 )  ( + T7 273 ) ) ( <= ( + T7 336 )( + T3 227 ) ) )
(or ( <= ( + T3 324 )  ( + T7 336 ) ) ( <= ( + T7 432 )( + T3 229 ) ) )
(or ( <= ( + T3 403 )  ( + T7 432 ) ) ( <= ( + T7 531 )( + T3 324 ) ) )
(or ( <= ( + T3 427 )  ( + T7 531 ) ) ( <= ( + T7 580 )( + T3 403 ) ) )
(or ( <= ( + T3 514 )  ( + T7 580 ) ) ( <= ( + T7 658 )( + T3 427 ) ) )
(or ( <= ( + T3 74 ) T8 ) ( <= ( + T8 81 ) T3 ) )
(or ( <= ( + T3 115 )  ( + T8 81 ) ) ( <= ( + T8 85 )( + T3 74 ) ) )
(or ( <= ( + T3 206 )  ( + T8 85 ) ) ( <= ( + T8 164 )( + T3 115 ) ) )
(or ( <= ( + T3 222 )  ( + T8 164 ) ) ( <= ( + T8 245 )( + T3 206 ) ) )
(or ( <= ( + T3 227 )  ( + T8 245 ) ) ( <= ( + T8 280 )( + T3 222 ) ) )
(or ( <= ( + T3 229 )  ( + T8 280 ) ) ( <= ( + T8 367 )( + T3 227 ) ) )
(or ( <= ( + T3 324 )  ( + T8 367 ) ) ( <= ( + T8 412 )( + T3 229 ) ) )
(or ( <= ( + T3 403 )  ( + T8 412 ) ) ( <= ( + T8 479 )( + T3 324 ) ) )
(or ( <= ( + T3 427 )  ( + T8 479 ) ) ( <= ( + T8 528 )( + T3 403 ) ) )
(or ( <= ( + T3 514 )  ( + T8 528 ) ) ( <= ( + T8 579 )( + T3 427 ) ) )
(or ( <= ( + T4 66 ) T5 ) ( <= ( + T5 56 ) T4 ) )
(or ( <= ( + T4 79 )  ( + T5 56 ) ) ( <= ( + T5 58 )( + T4 66 ) ) )
(or ( <= ( + T4 114 )  ( + T5 58 ) ) ( <= ( + T5 158 )( + T4 79 ) ) )
(or ( <= ( + T4 172 )  ( + T5 158 ) ) ( <= ( + T5 189 )( + T4 114 ) ) )
(or ( <= ( + T4 177 )  ( + T5 189 ) ) ( <= ( + T5 198 )( + T4 172 ) ) )
(or ( <= ( + T4 260 )  ( + T5 198 ) ) ( <= ( + T5 211 )( + T4 177 ) ) )
(or ( <= ( + T4 320 )  ( + T5 211 ) ) ( <= ( + T5 292 )( + T4 260 ) ) )
(or ( <= ( + T4 407 )  ( + T5 292 ) ) ( <= ( + T5 303 )( + T4 320 ) ) )
(or ( <= ( + T4 437 )  ( + T5 303 ) ) ( <= ( + T5 357 )( + T4 407 ) ) )
(or ( <= ( + T4 468 )  ( + T5 357 ) ) ( <= ( + T5 447 )( + T4 437 ) ) )
(or ( <= ( + T4 66 ) T6 ) ( <= ( + T6 28 ) T4 ) )
(or ( <= ( + T4 79 )  ( + T6 28 ) ) ( <= ( + T6 55 )( + T4 66 ) ) )
(or ( <= ( + T4 114 )  ( + T6 55 ) ) ( <= ( + T6 86 )( + T4 79 ) ) )
(or ( <= ( + T4 172 )  ( + T6 86 ) ) ( <= ( + T6 104 )( + T4 114 ) ) )
(or ( <= ( + T4 177 )  ( + T6 104 ) ) ( <= ( + T6 198 )( + T4 172 ) ) )
(or ( <= ( + T4 260 )  ( + T6 198 ) ) ( <= ( + T6 285 )( + T4 177 ) ) )
(or ( <= ( + T4 320 )  ( + T6 285 ) ) ( <= ( + T6 357 )( + T4 260 ) ) )
(or ( <= ( + T4 407 )  ( + T6 357 ) ) ( <= ( + T6 398 )( + T4 320 ) ) )
(or ( <= ( + T4 437 )  ( + T6 398 ) ) ( <= ( + T6 463 )( + T4 407 ) ) )
(or ( <= ( + T4 468 )  ( + T6 463 ) ) ( <= ( + T6 510 )( + T4 437 ) ) )
(or ( <= ( + T4 66 ) T7 ) ( <= ( + T7 79 ) T4 ) )
(or ( <= ( + T4 79 )  ( + T7 79 ) ) ( <= ( + T7 161 )( + T4 66 ) ) )
(or ( <= ( + T4 114 )  ( + T7 161 ) ) ( <= ( + T7 220 )( + T4 79 ) ) )
(or ( <= ( + T4 172 )  ( + T7 220 ) ) ( <= ( + T7 234 )( + T4 114 ) ) )
(or ( <= ( + T4 177 )  ( + T7 234 ) ) ( <= ( + T7 273 )( + T4 172 ) ) )
(or ( <= ( + T4 260 )  ( + T7 273 ) ) ( <= ( + T7 336 )( + T4 177 ) ) )
(or ( <= ( + T4 320 )  ( + T7 336 ) ) ( <= ( + T7 432 )( + T4 260 ) ) )
(or ( <= ( + T4 407 )  ( + T7 432 ) ) ( <= ( + T7 531 )( + T4 320 ) ) )
(or ( <= ( + T4 437 )  ( + T7 531 ) ) ( <= ( + T7 580 )( + T4 407 ) ) )
(or ( <= ( + T4 468 )  ( + T7 580 ) ) ( <= ( + T7 658 )( + T4 437 ) ) )
(or ( <= ( + T4 66 ) T8 ) ( <= ( + T8 81 ) T4 ) )
(or ( <= ( + T4 79 )  ( + T8 81 ) ) ( <= ( + T8 85 )( + T4 66 ) ) )
(or ( <= ( + T4 114 )  ( + T8 85 ) ) ( <= ( + T8 164 )( + T4 79 ) ) )
(or ( <= ( + T4 172 )  ( + T8 164 ) ) ( <= ( + T8 245 )( + T4 114 ) ) )
(or ( <= ( + T4 177 )  ( + T8 245 ) ) ( <= ( + T8 280 )( + T4 172 ) ) )
(or ( <= ( + T4 260 )  ( + T8 280 ) ) ( <= ( + T8 367 )( + T4 177 ) ) )
(or ( <= ( + T4 320 )  ( + T8 367 ) ) ( <= ( + T8 412 )( + T4 260 ) ) )
(or ( <= ( + T4 407 )  ( + T8 412 ) ) ( <= ( + T8 479 )( + T4 320 ) ) )
(or ( <= ( + T4 437 )  ( + T8 479 ) ) ( <= ( + T8 528 )( + T4 407 ) ) )
(or ( <= ( + T4 468 )  ( + T8 528 ) ) ( <= ( + T8 579 )( + T4 437 ) ) )
(or ( <= ( + T5 56 ) T6 ) ( <= ( + T6 28 ) T5 ) )
(or ( <= ( + T5 58 )  ( + T6 28 ) ) ( <= ( + T6 55 )( + T5 56 ) ) )
(or ( <= ( + T5 158 )  ( + T6 55 ) ) ( <= ( + T6 86 )( + T5 58 ) ) )
(or ( <= ( + T5 189 )  ( + T6 86 ) ) ( <= ( + T6 104 )( + T5 158 ) ) )
(or ( <= ( + T5 198 )  ( + T6 104 ) ) ( <= ( + T6 198 )( + T5 189 ) ) )
(or ( <= ( + T5 211 )  ( + T6 198 ) ) ( <= ( + T6 285 )( + T5 198 ) ) )
(or ( <= ( + T5 292 )  ( + T6 285 ) ) ( <= ( + T6 357 )( + T5 211 ) ) )
(or ( <= ( + T5 303 )  ( + T6 357 ) ) ( <= ( + T6 398 )( + T5 292 ) ) )
(or ( <= ( + T5 357 )  ( + T6 398 ) ) ( <= ( + T6 463 )( + T5 303 ) ) )
(or ( <= ( + T5 447 )  ( + T6 463 ) ) ( <= ( + T6 510 )( + T5 357 ) ) )
(or ( <= ( + T5 56 ) T7 ) ( <= ( + T7 79 ) T5 ) )
(or ( <= ( + T5 58 )  ( + T7 79 ) ) ( <= ( + T7 161 )( + T5 56 ) ) )
(or ( <= ( + T5 158 )  ( + T7 161 ) ) ( <= ( + T7 220 )( + T5 58 ) ) )
(or ( <= ( + T5 189 )  ( + T7 220 ) ) ( <= ( + T7 234 )( + T5 158 ) ) )
(or ( <= ( + T5 198 )  ( + T7 234 ) ) ( <= ( + T7 273 )( + T5 189 ) ) )
(or ( <= ( + T5 211 )  ( + T7 273 ) ) ( <= ( + T7 336 )( + T5 198 ) ) )
(or ( <= ( + T5 292 )  ( + T7 336 ) ) ( <= ( + T7 432 )( + T5 211 ) ) )
(or ( <= ( + T5 303 )  ( + T7 432 ) ) ( <= ( + T7 531 )( + T5 292 ) ) )
(or ( <= ( + T5 357 )  ( + T7 531 ) ) ( <= ( + T7 580 )( + T5 303 ) ) )
(or ( <= ( + T5 447 )  ( + T7 580 ) ) ( <= ( + T7 658 )( + T5 357 ) ) )
(or ( <= ( + T5 56 ) T8 ) ( <= ( + T8 81 ) T5 ) )
(or ( <= ( + T5 58 )  ( + T8 81 ) ) ( <= ( + T8 85 )( + T5 56 ) ) )
(or ( <= ( + T5 158 )  ( + T8 85 ) ) ( <= ( + T8 164 )( + T5 58 ) ) )
(or ( <= ( + T5 189 )  ( + T8 164 ) ) ( <= ( + T8 245 )( + T5 158 ) ) )
(or ( <= ( + T5 198 )  ( + T8 245 ) ) ( <= ( + T8 280 )( + T5 189 ) ) )
(or ( <= ( + T5 211 )  ( + T8 280 ) ) ( <= ( + T8 367 )( + T5 198 ) ) )
(or ( <= ( + T5 292 )  ( + T8 367 ) ) ( <= ( + T8 412 )( + T5 211 ) ) )
(or ( <= ( + T5 303 )  ( + T8 412 ) ) ( <= ( + T8 479 )( + T5 292 ) ) )
(or ( <= ( + T5 357 )  ( + T8 479 ) ) ( <= ( + T8 528 )( + T5 303 ) ) )
(or ( <= ( + T5 447 )  ( + T8 528 ) ) ( <= ( + T8 579 )( + T5 357 ) ) )
(or ( <= ( + T6 28 ) T7 ) ( <= ( + T7 79 ) T6 ) )
(or ( <= ( + T6 55 )  ( + T7 79 ) ) ( <= ( + T7 161 )( + T6 28 ) ) )
(or ( <= ( + T6 86 )  ( + T7 161 ) ) ( <= ( + T7 220 )( + T6 55 ) ) )
(or ( <= ( + T6 104 )  ( + T7 220 ) ) ( <= ( + T7 234 )( + T6 86 ) ) )
(or ( <= ( + T6 198 )  ( + T7 234 ) ) ( <= ( + T7 273 )( + T6 104 ) ) )
(or ( <= ( + T6 285 )  ( + T7 273 ) ) ( <= ( + T7 336 )( + T6 198 ) ) )
(or ( <= ( + T6 357 )  ( + T7 336 ) ) ( <= ( + T7 432 )( + T6 285 ) ) )
(or ( <= ( + T6 398 )  ( + T7 432 ) ) ( <= ( + T7 531 )( + T6 357 ) ) )
(or ( <= ( + T6 463 )  ( + T7 531 ) ) ( <= ( + T7 580 )( + T6 398 ) ) )
(or ( <= ( + T6 510 )  ( + T7 580 ) ) ( <= ( + T7 658 )( + T6 463 ) ) )
(or ( <= ( + T6 28 ) T8 ) ( <= ( + T8 81 ) T6 ) )
(or ( <= ( + T6 55 )  ( + T8 81 ) ) ( <= ( + T8 85 )( + T6 28 ) ) )
(or ( <= ( + T6 86 )  ( + T8 85 ) ) ( <= ( + T8 164 )( + T6 55 ) ) )
(or ( <= ( + T6 104 )  ( + T8 164 ) ) ( <= ( + T8 245 )( + T6 86 ) ) )
(or ( <= ( + T6 198 )  ( + T8 245 ) ) ( <= ( + T8 280 )( + T6 104 ) ) )
(or ( <= ( + T6 285 )  ( + T8 280 ) ) ( <= ( + T8 367 )( + T6 198 ) ) )
(or ( <= ( + T6 357 )  ( + T8 367 ) ) ( <= ( + T8 412 )( + T6 285 ) ) )
(or ( <= ( + T6 398 )  ( + T8 412 ) ) ( <= ( + T8 479 )( + T6 357 ) ) )
(or ( <= ( + T6 463 )  ( + T8 479 ) ) ( <= ( + T8 528 )( + T6 398 ) ) )
(or ( <= ( + T6 510 )  ( + T8 528 ) ) ( <= ( + T8 579 )( + T6 463 ) ) )
(or ( <= ( + T7 79 ) T8 ) ( <= ( + T8 81 ) T7 ) )
(or ( <= ( + T7 161 )  ( + T8 81 ) ) ( <= ( + T8 85 )( + T7 79 ) ) )
(or ( <= ( + T7 220 )  ( + T8 85 ) ) ( <= ( + T8 164 )( + T7 161 ) ) )
(or ( <= ( + T7 234 )  ( + T8 164 ) ) ( <= ( + T8 245 )( + T7 220 ) ) )
(or ( <= ( + T7 273 )  ( + T8 245 ) ) ( <= ( + T8 280 )( + T7 234 ) ) )
(or ( <= ( + T7 336 )  ( + T8 280 ) ) ( <= ( + T8 367 )( + T7 273 ) ) )
(or ( <= ( + T7 432 )  ( + T8 367 ) ) ( <= ( + T8 412 )( + T7 336 ) ) )
(or ( <= ( + T7 531 )  ( + T8 412 ) ) ( <= ( + T8 479 )( + T7 432 ) ) )
(or ( <= ( + T7 580 )  ( + T8 479 ) ) ( <= ( + T8 528 )( + T7 531 ) ) )
(or ( <= ( + T7 658 )  ( + T8 528 ) ) ( <= ( + T8 579 )( + T7 580 ) ) )
( <= ( + T1 589 ) Z)
( <= ( + T2 404 ) Z)
( <= ( + T3 514 ) Z)
( <= ( + T4 468 ) Z)
( <= ( + T5 447 ) Z)
( <= ( + T6 510 ) Z)
( <= ( + T7 658 ) Z)
( <= ( + T8 579 ) Z)
( >= T1 0 )
( >= T2 0 )
( >= T3 0 )
( >= T4 0 )
( >= T5 0 )
( >= T6 0 )
( >= T7 0 )
( >= T8 0 )
) )
)(=> $phi $goal))))